77      4       
10      10      10      10      
0       0       0       0       0       9       2       3       4       5       6       7       9       14      20      
7       0       0       0       1       6       8       10      11      13      19      21      
6       0       0       0       6       5       8       12      13      19      21      
1       0       0       0       9       5       8       12      15      19      21      
5       0       0       0       9       5       8       10      13      15      19      
2       0       0       0       9       7       11      12      13      15      16      17      19      
8       0       0       0       7       4       8       13      15      19      
9       0       0       0       10      5       16      17      18      24      26      
1       0       9       9       9       4       17      18      22      24      
4       0       0       0       10      4       17      18      22      27      
9       6       0       0       3       8       23      25      26      27      30      32      34      38      
6       6       0       0       6       6       22      23      25      27      30      32      
10      0       0       0       10      5       22      23      24      30      32      
5       3       5       3       3       2       18      24      
4       6       0       0       7       7       23      25      26      27      30      34      38      
4       0       0       6       6       5       22      23      25      30      32      
3       0       0       0       10      5       23      25      30      34      38      
2       0       8       6       7       7       25      29      30      31      32      36      38      
3       5       0       0       6       7       25      27      29      31      34      36      38      
9       7       0       0       7       6       25      27      30      34      36      38      
2       0       0       0       10      7       28      31      32      33      34      36      38      
8       4       0       5       3       6       28      31      33      34      38      44      
2       0       0       7       7       5       28      29      31      36      37      
3       0       0       0       10      3       27      34      44      
2       0       8       7       6       4       28      33      37      44      
9       0       0       7       7       4       28      33      37      44      
9       0       5       0       4       2       28      33      
8       0       0       0       8       8       35      39      40      41      42      45      46      48      
7       0       0       0       6       8       35      39      40      42      44      45      46      48      
3       5       5       5       4       3       33      39      46      
8       3       4       4       2       6       35      39      40      41      42      46      
5       0       0       0       10      6       35      40      41      45      46      48      
2       0       6       6       4       5       35      40      42      45      48      
4       8       7       9       4       6       37      39      40      45      47      50      
4       5       4       3       5       6       43      47      49      50      51      58      
9       0       2       3       4       3       40      47      55      
1       0       9       0       5       5       46      53      54      56      58      
4       10      0       0       10      4       46      51      54      58      
4       0       0       0       10      8       49      53      55      56      57      58      59      63      
10      0       0       0       10      7       51      52      54      56      58      64      69      
9       0       3       5       2       5       52      53      54      55      56      
8       0       6       7       5       6       51      52      55      56      63      64      
3       10      0       0       10      4       52      53      54      55      
5       7       6       0       5       6       53      54      57      58      59      69      
1       0       4       8       5       5       52      54      55      62      64      
9       10      0       0       10      4       52      55      62      64      
9       5       0       0       7       3       53      54      69      
3       5       0       4       5       6       57      59      60      63      67      69      
9       10      0       0       10      10      60      61      62      64      65      67      68      69      75      76      
9       0       8       0       5       5       57      60      64      67      76      
8       7       7       0       8       4       57      60      62      67      
8       10      0       0       10      3       57      59      60      
5       3       6       8       5       7       62      64      65      67      68      73      76      
8       5       4       0       5       6       61      63      65      67      74      75      
10      10      0       0       10      6       65      66      67      68      69      71      
10      7       0       0       0       6       60      61      65      66      67      73      
5       10      0       0       0       6       61      65      66      68      73      75      
8       5       4       7       3       6       60      65      66      71      73      75      
1       3       5       2       4       4       65      66      71      76      
5       10      0       0       10      3       70      72      74      
5       10      0       0       10      2       70      71      
2       10      0       0       10      2       71      72      
2       10      0       0       10      2       72      73      
10      10      0       0       0       1       66      
2       10      0       0       10      1       70      
10      0       0       0       10      1       70      
3       10      0       0       10      1       72      
3       3       6       8       5       1       74      
2       6       5       0       5       1       73      
6       0       0       0       10      1       77      
9       10      0       0       10      1       77      
6       7       0       0       6       1       77      
2       10      0       0       10      1       77      
1       4       0       0       5       1       77      
1       7       0       0       6       1       77      
4       10      0       0       10      1       77      
0       0       0       0       0       0       
